container_size = [45, 30, 13];
Box = B(1..6);
no_boxes = [35, 15, 25, 10, 20, 15];
box_size =
[|       Length: Width: Height: 
 | B(1):      4,     3,      2
 | B(2):      3,     2,      2
 | B(3):      5,     5,      1
 | B(4):      8,     2,      2
 | B(5):     15,     2,      2
 | B(6):      9,     2,      2
 |];
